p cnf 50 175
-4 2 0
-4 -3 0
-2 3 4 0
5 1 0
5 4 0
-1 -4 -5 0
1 6 -7 0
-1 -6 -7 0
1 -6 7 0
-1 6 7 0
6 -1 -9 0
-6 1 -9 0
6 1 9 0
-6 -1 9 0
-10 8 0
-10 -9 0
-8 9 10 0
7 10 -11 0
-7 -10 -11 0
7 -10 11 0
-7 10 11 0
-12 -6 -13 0
12 6 -13 0
-12 6 13 0
12 -6 13 0
-14 -13 0
-14 13 0
-12 10 -15 0
12 -10 -15 0
-12 -10 15 0
12 10 15 0
14 15 -16 0
-14 -15 -16 0
14 -15 16 0
-14 15 16 0
-11 -16 -17 0
11 16 -17 0
-11 16 17 0
11 -16 17 0
-9 8 -18 0
9 -8 -18 0
-9 -8 18 0
9 8 18 0
-19 -18 0
-19 -15 0
18 15 19 0
19 4 -20 0
-19 -4 -20 0
19 -4 20 0
-19 4 20 0
-22 -4 0
-22 21 0
4 -21 22 0
-23 -20 0
-23 22 0
20 -22 23 0
24 -13 0
24 -13 0
13 -24 0
-25 -23 0
-25 24 0
23 -24 25 0
26 -17 0
26 -25 0
17 25 -26 0
-8 -27 -28 0
8 27 -28 0
-8 27 28 0
8 -27 28 0
29 3 0
29 3 0
-3 -29 0
30 -13 0
30 -29 0
13 29 -30 0
31 29 0
31 -30 0
-29 30 -31 0
-32 -28 0
-32 -31 0
28 31 32 0
26 -32 -33 0
-26 32 -33 0
26 32 33 0
-26 -32 33 0
-34 8 -35 0
34 -8 -35 0
-34 -8 35 0
34 8 35 0
-36 8 0
-36 -35 0
-8 35 36 0
37 -3 0
37 -2 0
3 2 -37 0
38 36 0
38 37 0
-36 -37 -38 0
39 33 0
39 38 0
-33 -38 -39 0
40 5 0
40 -39 0
-5 39 -40 0
-28 13 -41 0
28 -13 -41 0
-28 -13 41 0
28 13 41 0
9 42 -43 0
-9 -42 -43 0
9 -42 43 0
-9 42 43 0
-44 43 0
-44 9 0
-43 -9 44 0
-45 4 0
-45 -30 0
-4 30 45 0
-46 -44 0
-46 45 0
44 -45 46 0
-47 41 0
-47 -46 0
-41 46 47 0
-48 34 0
-48 -2 0
-34 2 48 0
49 -47 0
49 48 0
47 -48 -49 0
-40 49 -50 0
40 -49 -50 0
-40 -49 50 0
40 49 50 0
27 -21 0
28 10 36 -37 -14 6 0
-49 -16 0
42 -2 3 39 12 0
45 20 28 0
10 -21 -3 8 -17 0
-39 20 -37 12 47 0
-18 -26 -16 0
39 -24 47 29 0
50 20 0
6 -25 -48 -42 33 0
-2 26 -44 0
-48 25 -13 -27 -43 0
35 -11 39 25 0
46 -45 38 43 0
49 5 28 0
8 -45 -27 0
-50 -43 3 -12 0
36 5 50 -4 6 0
-19 -28 -3 -1 0
-2 -25 43 42 16 0
13 37 0
-28 -47 0
1 -32 0
-32 -48 3 40 0
-50 -41 25 0
7 -13 24 5 0
-45 -47 -21 26 15 -48 0
-23 -22 0
32 -28 25 -8 -37 -39 0
-8 43 50 -1 -3 40 0
-47 20 -17 7 0
41 43 -45 9 0
-11 -3 7 36 0
-29 -47 50 1 0
7 -41 3 21 -15 12 0
18 -30 22 -41 -3 -32 0
-50 -40 0
-19 -40 0
50 47 -43 18 -41 0
50 0
